unknown
(model
; cardinality of BoundSet is 3
(declare-sort BoundSet 0)
; rep: @uc_BoundSet_0
; rep: @uc_BoundSet_1
; rep: @uc_BoundSet_2
; cardinality of UnboundSet is 1
(declare-sort UnboundSet 0)
(declare-fun groundTerm_4 () UnboundSet)
(define-fun HasToGive ((BOUND_VARIABLE_414 BoundSet) (BOUND_VARIABLE_415 BoundSet)) Bool true)
(define-fun IsEntirePaycheck ((BOUND_VARIABLE_418 BoundSet)) Bool true)
(define-fun Believes ((BOUND_VARIABLE_414 BoundSet) (BOUND_VARIABLE_415 BoundSet)) Bool false)
(define-fun IsNotSignificant ((BOUND_VARIABLE_418 BoundSet)) Bool false)
)
sat
(model
; cardinality of BoundSet is 1
(declare-sort BoundSet 0)
; rep: @uc_BoundSet_0
; cardinality of UnboundSet is 1
(declare-sort UnboundSet 0)
(declare-fun groundTerm_6 () UnboundSet)
(define-fun HasToGive ((BOUND_VARIABLE_449 BoundSet) (BOUND_VARIABLE_450 BoundSet)) Bool true)
(define-fun IsEntirePaycheck ((BOUND_VARIABLE_453 BoundSet)) Bool true)
(define-fun Believes ((BOUND_VARIABLE_449 BoundSet) (BOUND_VARIABLE_450 BoundSet)) Bool false)
(define-fun IsNotSignificant ((BOUND_VARIABLE_453 BoundSet)) Bool false)
)
